91
150
105	9
104	8
103	8
102	9
101	7
100	5
99	12
98	12
97	11
96	12
95	11
94	4
93	14
92	12
91	9
90	13
89	9
88	11
87	13
86	17
85	12
84	13
83	9
82	8
81	8
80	7
79	11
78	16
77	10
76	11
75	10
74	10
73	11
72	11
71	10
70	12
69	11
68	15
67	12
66	7
65	12
64	20
63	13
62	17
61	10
60	15
59	13
58	19
57	16
56	12
55	8
54	10
53	13
52	7
51	14
50	7
49	9
48	21
47	13
46	7
45	15
44	13
43	10
42	15
41	8
40	8
39	9
38	12
37	12
36	8
35	9
34	10
33	12
32	15
31	15
30	6
29	11
28	13
27	5
26	11
25	2
24	10
23	6
22	13
21	5
20	8
19	12
18	12
17	7
16	17
15	15
